data/mps_files/pEFS/101_0.mps
NAME foo
ROWS
 N  OBJ
 E  allocateEach[1]
 E  allocateAllCash
 G  findWorstP[1,2]
 G  findWorstP[1,3]
 G  findWorstP[1,4]
 G  findWorstP[1,5]
 G  findWorstP[1,6]
 G  findWorstP[2,1]
 G  findWorstP[2,3]
 G  findWorstP[2,4]
 G  findWorstP[2,5]
 G  findWorstP[2,6]
 G  findWorstP[3,1]
 G  findWorstP[3,2]
 G  findWorstP[3,4]
 G  findWorstP[3,5]
 G  findWorstP[3,6]
 G  findWorstP[4,1]
 G  findWorstP[4,2]
 G  findWorstP[4,3]
 G  findWorstP[4,5]
 G  findWorstP[4,6]
 G  findWorstP[5,1]
 G  findWorstP[5,2]
 G  findWorstP[5,3]
 G  findWorstP[5,4]
 G  findWorstP[5,6]
 G  findWorstP[6,1]
 G  findWorstP[6,2]
 G  findWorstP[6,3]
 G  findWorstP[6,4]
 G  findWorstP[6,5]
COLUMNS
    z         OBJ       1
    z         findWorstP[1,2]  1
    z         findWorstP[1,3]  1
    z         findWorstP[1,4]  1
    z         findWorstP[1,5]  1
    z         findWorstP[1,6]  1
    z         findWorstP[2,1]  1
    z         findWorstP[2,3]  1
    z         findWorstP[2,4]  1
    z         findWorstP[2,5]  1
    z         findWorstP[2,6]  1
    z         findWorstP[3,1]  1
    z         findWorstP[3,2]  1
    z         findWorstP[3,4]  1
    z         findWorstP[3,5]  1
    z         findWorstP[3,6]  1
    z         findWorstP[4,1]  1
    z         findWorstP[4,2]  1
    z         findWorstP[4,3]  1
    z         findWorstP[4,5]  1
    z         findWorstP[4,6]  1
    z         findWorstP[5,1]  1
    z         findWorstP[5,2]  1
    z         findWorstP[5,3]  1
    z         findWorstP[5,4]  1
    z         findWorstP[5,6]  1
    z         findWorstP[6,1]  1
    z         findWorstP[6,2]  1
    z         findWorstP[6,3]  1
    z         findWorstP[6,4]  1
    z         findWorstP[6,5]  1
    cashProportion[1]  allocateAllCash  1
    cashProportion[1]  findWorstP[1,2]  5.4118411083450592e-02
    cashProportion[1]  findWorstP[1,3]  5.4118411083450592e-02
    cashProportion[1]  findWorstP[1,4]  5.4118411083450592e-02
    cashProportion[1]  findWorstP[1,5]  5.4118411083450592e-02
    cashProportion[1]  findWorstP[1,6]  5.4118411083450592e-02
    cashProportion[1]  findWorstP[2,1]  -5.1813471502590669e-01
    cashProportion[1]  findWorstP[3,1]  -9.8173964264677019e-02
    cashProportion[1]  findWorstP[4,1]  -0.0933184023889511
    cashProportion[1]  findWorstP[5,1]  -6.1102285225467436e-02
    cashProportion[1]  findWorstP[6,1]  -1.6490765171503963e-01
    cashProportion[2]  allocateAllCash  1
    cashProportion[2]  findWorstP[1,2]  -5.4118411083450592e-02
    cashProportion[2]  findWorstP[2,1]  5.1813471502590669e-01
    cashProportion[2]  findWorstP[2,3]  5.1813471502590669e-01
    cashProportion[2]  findWorstP[2,4]  5.1813471502590669e-01
    cashProportion[2]  findWorstP[2,5]  5.1813471502590669e-01
    cashProportion[2]  findWorstP[2,6]  5.1813471502590669e-01
    cashProportion[2]  findWorstP[3,2]  -9.8173964264677019e-02
    cashProportion[2]  findWorstP[4,2]  -0.0933184023889511
    cashProportion[2]  findWorstP[5,2]  -6.1102285225467436e-02
    cashProportion[2]  findWorstP[6,2]  -1.6490765171503963e-01
    cashProportion[3]  allocateAllCash  1
    cashProportion[3]  findWorstP[1,3]  -5.4118411083450592e-02
    cashProportion[3]  findWorstP[2,3]  -5.1813471502590669e-01
    cashProportion[3]  findWorstP[3,1]  9.8173964264677019e-02
    cashProportion[3]  findWorstP[3,2]  9.8173964264677019e-02
    cashProportion[3]  findWorstP[3,4]  9.8173964264677019e-02
    cashProportion[3]  findWorstP[3,5]  9.8173964264677019e-02
    cashProportion[3]  findWorstP[3,6]  9.8173964264677019e-02
    cashProportion[3]  findWorstP[4,3]  -0.0933184023889511
    cashProportion[3]  findWorstP[5,3]  -6.1102285225467436e-02
    cashProportion[3]  findWorstP[6,3]  -1.6490765171503963e-01
    cashProportion[4]  allocateAllCash  1
    cashProportion[4]  findWorstP[1,4]  -5.4118411083450592e-02
    cashProportion[4]  findWorstP[2,4]  -5.1813471502590669e-01
    cashProportion[4]  findWorstP[3,4]  -9.8173964264677019e-02
    cashProportion[4]  findWorstP[4,1]  0.0933184023889511
    cashProportion[4]  findWorstP[4,2]  0.0933184023889511
    cashProportion[4]  findWorstP[4,3]  0.0933184023889511
    cashProportion[4]  findWorstP[4,5]  0.0933184023889511
    cashProportion[4]  findWorstP[4,6]  0.0933184023889511
    cashProportion[4]  findWorstP[5,4]  -6.1102285225467436e-02
    cashProportion[4]  findWorstP[6,4]  -1.6490765171503963e-01
    cashProportion[5]  allocateAllCash  1
    cashProportion[5]  findWorstP[1,5]  -5.4118411083450592e-02
    cashProportion[5]  findWorstP[2,5]  -5.1813471502590669e-01
    cashProportion[5]  findWorstP[3,5]  -9.8173964264677019e-02
    cashProportion[5]  findWorstP[4,5]  -0.0933184023889511
    cashProportion[5]  findWorstP[5,1]  6.1102285225467436e-02
    cashProportion[5]  findWorstP[5,2]  6.1102285225467436e-02
    cashProportion[5]  findWorstP[5,3]  6.1102285225467436e-02
    cashProportion[5]  findWorstP[5,4]  6.1102285225467436e-02
    cashProportion[5]  findWorstP[5,6]  6.1102285225467436e-02
    cashProportion[5]  findWorstP[6,5]  -1.6490765171503963e-01
    cashProportion[6]  allocateAllCash  1
    cashProportion[6]  findWorstP[1,6]  -5.4118411083450592e-02
    cashProportion[6]  findWorstP[2,6]  -5.1813471502590669e-01
    cashProportion[6]  findWorstP[3,6]  -9.8173964264677019e-02
    cashProportion[6]  findWorstP[4,6]  -0.0933184023889511
    cashProportion[6]  findWorstP[5,6]  -6.1102285225467436e-02
    cashProportion[6]  findWorstP[6,1]  1.6490765171503963e-01
    cashProportion[6]  findWorstP[6,2]  1.6490765171503963e-01
    cashProportion[6]  findWorstP[6,3]  1.6490765171503963e-01
    cashProportion[6]  findWorstP[6,4]  1.6490765171503963e-01
    cashProportion[6]  findWorstP[6,5]  1.6490765171503963e-01
    MARKER    'MARKER'                 'INTORG'
    x[1,1]    allocateEach[1]  1
    x[1,1]    findWorstP[1,2]  9.4588158891654939e-01
    x[1,1]    findWorstP[1,3]  9.4588158891654939e-01
    x[1,1]    findWorstP[1,4]  9.4588158891654939e-01
    x[1,1]    findWorstP[1,5]  9.4588158891654939e-01
    x[1,1]    findWorstP[1,6]  9.4588158891654939e-01
    x[1,1]    findWorstP[2,1]  -4.8186528497409326e-01
    x[1,1]    findWorstP[3,1]  -0.901826035735323
    x[1,1]    findWorstP[4,1]  -9.0668159761104883e-01
    x[1,1]    findWorstP[5,1]  -9.3889771477453254e-01
    x[1,1]    findWorstP[6,1]  -8.3509234828496048e-01
    x[2,1]    allocateEach[1]  1
    x[2,1]    findWorstP[1,2]  -9.4588158891654939e-01
    x[2,1]    findWorstP[2,1]  4.8186528497409326e-01
    x[2,1]    findWorstP[2,3]  4.8186528497409326e-01
    x[2,1]    findWorstP[2,4]  4.8186528497409326e-01
    x[2,1]    findWorstP[2,5]  4.8186528497409326e-01
    x[2,1]    findWorstP[2,6]  4.8186528497409326e-01
    x[2,1]    findWorstP[3,2]  -0.901826035735323
    x[2,1]    findWorstP[4,2]  -9.0668159761104883e-01
    x[2,1]    findWorstP[5,2]  -9.3889771477453254e-01
    x[2,1]    findWorstP[6,2]  -8.3509234828496048e-01
    x[3,1]    allocateEach[1]  1
    x[3,1]    findWorstP[1,3]  -9.4588158891654939e-01
    x[3,1]    findWorstP[2,3]  -4.8186528497409326e-01
    x[3,1]    findWorstP[3,1]  0.901826035735323
    x[3,1]    findWorstP[3,2]  0.901826035735323
    x[3,1]    findWorstP[3,4]  0.901826035735323
    x[3,1]    findWorstP[3,5]  0.901826035735323
    x[3,1]    findWorstP[3,6]  0.901826035735323
    x[3,1]    findWorstP[4,3]  -9.0668159761104883e-01
    x[3,1]    findWorstP[5,3]  -9.3889771477453254e-01
    x[3,1]    findWorstP[6,3]  -8.3509234828496048e-01
    x[4,1]    allocateEach[1]  1
    x[4,1]    findWorstP[1,4]  -9.4588158891654939e-01
    x[4,1]    findWorstP[2,4]  -4.8186528497409326e-01
    x[4,1]    findWorstP[3,4]  -0.901826035735323
    x[4,1]    findWorstP[4,1]  9.0668159761104883e-01
    x[4,1]    findWorstP[4,2]  9.0668159761104883e-01
    x[4,1]    findWorstP[4,3]  9.0668159761104883e-01
    x[4,1]    findWorstP[4,5]  9.0668159761104883e-01
    x[4,1]    findWorstP[4,6]  9.0668159761104883e-01
    x[4,1]    findWorstP[5,4]  -9.3889771477453254e-01
    x[4,1]    findWorstP[6,4]  -8.3509234828496048e-01
    x[5,1]    allocateEach[1]  1
    x[5,1]    findWorstP[1,5]  -9.4588158891654939e-01
    x[5,1]    findWorstP[2,5]  -4.8186528497409326e-01
    x[5,1]    findWorstP[3,5]  -0.901826035735323
    x[5,1]    findWorstP[4,5]  -9.0668159761104883e-01
    x[5,1]    findWorstP[5,1]  9.3889771477453254e-01
    x[5,1]    findWorstP[5,2]  9.3889771477453254e-01
    x[5,1]    findWorstP[5,3]  9.3889771477453254e-01
    x[5,1]    findWorstP[5,4]  9.3889771477453254e-01
    x[5,1]    findWorstP[5,6]  9.3889771477453254e-01
    x[5,1]    findWorstP[6,5]  -8.3509234828496048e-01
    x[6,1]    allocateEach[1]  1
    x[6,1]    findWorstP[1,6]  -9.4588158891654939e-01
    x[6,1]    findWorstP[2,6]  -4.8186528497409326e-01
    x[6,1]    findWorstP[3,6]  -0.901826035735323
    x[6,1]    findWorstP[4,6]  -9.0668159761104883e-01
    x[6,1]    findWorstP[5,6]  -9.3889771477453254e-01
    x[6,1]    findWorstP[6,1]  8.3509234828496048e-01
    x[6,1]    findWorstP[6,2]  8.3509234828496048e-01
    x[6,1]    findWorstP[6,3]  8.3509234828496048e-01
    x[6,1]    findWorstP[6,4]  8.3509234828496048e-01
    x[6,1]    findWorstP[6,5]  8.3509234828496048e-01
    MARKER    'MARKER'                 'INTEND'
RHS
    RHS1      allocateEach[1]  1
    RHS1      allocateAllCash  1
BOUNDS
 UP BND1      z         1
 MI BND1      cashProportion[1]
 UP BND1      cashProportion[1]  1
 MI BND1      cashProportion[2]
 UP BND1      cashProportion[2]  1
 MI BND1      cashProportion[3]
 UP BND1      cashProportion[3]  1
 MI BND1      cashProportion[4]
 UP BND1      cashProportion[4]  1
 MI BND1      cashProportion[5]
 UP BND1      cashProportion[5]  1
 MI BND1      cashProportion[6]
 UP BND1      cashProportion[6]  1
 BV BND1      x[1,1]  
 BV BND1      x[2,1]  
 BV BND1      x[3,1]  
 BV BND1      x[4,1]  
 BV BND1      x[5,1]  
 BV BND1      x[6,1]  
ENDATA
